db/data/3224931172225521073220277108922684425348.z3.out
sat
-------------------
637.336050179
